Si (Diamond) - Relaxation
5.430
0.5 0.5 0.0
0.0 0.5 0.5
0.5 0.0 0.5
2
cartesian
0.00 0.00 0.00
0.25 0.25 0.25